results_rootrelaxation/bin012_060_020.srr.sol
solution status: optimal solution found
objective value:                     2.98203592814371
_var167_                             0.25748502994012 	(obj:0)
_var694_                            0.267065868263471 	(obj:0)
_var737_                           0.0610778443113776 	(obj:0)
_var744_                            0.285029940119759 	(obj:0)
_var756_                            0.276646706586826 	(obj:0)
_var785_                            0.362874251497007 	(obj:0)
_var787_                           0.0742514970059862 	(obj:0)
_var795_                            0.017964071856287 	(obj:1)
_var800_                            0.271856287425152 	(obj:0)
_var804_                           0.0598802395209586 	(obj:0)
_var810_                            0.114970059880242 	(obj:0)
_var814_                           0.0443113772455067 	(obj:0)
_var815_                            0.565269461077845 	(obj:0)
_var817_                            0.243113772455089 	(obj:1)
_var818_                           0.0263473053892203 	(obj:0)
_var820_                             0.12934131736527 	(obj:0)
_var821_                            0.251497005988028 	(obj:0)
_var828_                            0.271856287425151 	(obj:0)
_var830_                            0.293413173652694 	(obj:1)
_var831_                            0.594011976047905 	(obj:0)
_var834_                            0.625149700598802 	(obj:0)
_var835_                           0.0263473053892196 	(obj:0)
_var837_                           0.0419161676646702 	(obj:0)
_var841_                            0.147305389221559 	(obj:0)
_var843_                            0.140119760479038 	(obj:0)
_var844_                           0.0694610778443094 	(obj:0)
_var845_                            0.250299401197605 	(obj:0)
_var847_                             0.10059880239521 	(obj:1)
_var852_                            0.102994011976046 	(obj:0)
_var853_                           0.0335329341317372 	(obj:0)
_var860_                           0.0598802395209598 	(obj:1)
_var863_                            0.124550898203593 	(obj:0)
_var864_                             0.01676646706587 	(obj:1)
_var866_                           0.0335329341317375 	(obj:1)
_var871_                           0.0598802395209581 	(obj:0)
_var872_                              0.3688622754491 	(obj:0)
_var875_                            0.017964071856287 	(obj:0)
_var877_                            0.298203592814372 	(obj:0)
_var882_                           0.0898203592814391 	(obj:0)
_var883_                           0.0658682634730548 	(obj:0)
_var889_                            0.124550898203593 	(obj:0)
_var890_                            0.227544910179642 	(obj:2)
_var892_                           0.0658682634730548 	(obj:0)
_var893_                            0.188023952095807 	(obj:1)
_var895_                            0.209580838323353 	(obj:0)
_var897_                            0.134131736526944 	(obj:0)
_var898_                           0.0251497005988048 	(obj:1)
_var902_                            0.373652694610777 	(obj:1)
_var903_                            0.221556886227542 	(obj:0)
_var906_                            0.331736526946108 	(obj:0)
_var910_                            0.172455089820362 	(obj:1)
_var911_                             0.31616766467066 	(obj:0)
_var913_                            0.355688622754493 	(obj:0)
_var917_                            0.123353293413175 	(obj:1)
_var919_                           0.0502994011976038 	(obj:0)
_var920_                            0.219161676646707 	(obj:0)
_var922_                           0.0455089820359273 	(obj:0)
_var923_                            0.207185628742513 	(obj:2)
_var924_                            0.104191616766468 	(obj:0)
_var926_                            0.183233532934129 	(obj:1)
_var927_                            0.134131736526946 	(obj:2)
_var928_                           0.0323353293413172 	(obj:0)
_var930_                           0.0131736526946106 	(obj:1)
