results_rootrelaxation/bin012_060_020.srr.log
SCIP version 8.0.3.5 [precision: 8 byte] [memory: block] [mode: optimized] [LP solver: Soplex 6.0.1.3] [GitHash: 438792519e]
Copyright (c) 2002-2023 Zuse Institute Berlin (ZIB)

External libraries: 
  Readline 8.1         GNU library for command line editing (gnu.org/s/readline)
  Soplex 6.0.1.3       Linear Programming Solver developed at Zuse Institute Berlin (soplex.zib.de) [GitHash: 713be0fe]
  CppAD 20180000.0     Algorithmic Differentiation of C++ algorithms developed by B. Bell (github.com/coin-or/CppAD)
  ZLIB 1.2.11          General purpose compression library by J. Gailly and M. Adler (zlib.net)
  bliss 0.77           Computing Graph Automorphism Groups by T. Junttila and P. Kaski (www.tcs.hut.fi/Software/bliss/)

user parameter file <scip.set> not found - using default parameters

srr/relaxation = TRUE

read problem <instances/bin012_060_020.srr>
============

Original problem: 
original problem has 0 variables (0 bin, 0 int, 0 impl, 0 cont) and 77 constraints

presolving:
presolving (1 rounds: 1 fast, 1 medium, 1 exhaustive):
 0 deleted vars, 0 deleted constraints, 0 added constraints, 0 tightened bounds, 0 added holes, 0 changed sides, 0 changed coefficients
 0 implications, 0 cliques
presolved problem has 0 variables (0 bin, 0 int, 0 impl, 0 cont) and 77 constraints
     77 constraints of type <linear>
Presolving Time: 0.00

 time | node  | left  |LP iter|LP it/n|mem/heur|mdpt |vars |cons |rows |cuts |sepa|confs|strbr|  dualbound   | primalbound  |  gap   | compl. 
  0.0s|     1 |     0 |     1 |     - |   710k |   0 |   1 |  77 |  77 |   0 |  0 |   0 |   0 |      --      |      --      |    Inf | unknown
r 0.1s|     1 |     0 |   967 |     - |simplero|   0 | 694 |  77 |  77 |   0 |  0 |   0 |   0 |      --      | 2.009804e+01 |    Inf | unknown
r 0.1s|     1 |     0 |  1011 |     - |simplero|   0 | 705 |  77 |  77 |   0 |  0 |   0 |   0 |      --      | 1.813564e+01 |    Inf | unknown
r 0.1s|     1 |     0 |  1051 |     - |simplero|   0 | 716 |  77 |  77 |   0 |  0 |   0 |   0 |      --      | 1.689485e+01 |    Inf | unknown
r 0.1s|     1 |     0 |  1128 |     - |simplero|   0 | 727 |  77 |  77 |   0 |  0 |   0 |   0 |      --      | 1.459375e+01 |    Inf | unknown
r 0.1s|     1 |     0 |  1181 |     - |simplero|   0 | 738 |  77 |  77 |   0 |  0 |   0 |   0 |      --      | 1.267916e+01 |    Inf | unknown
r 0.1s|     1 |     0 |  1215 |     - |simplero|   0 | 749 |  77 |  77 |   0 |  0 |   0 |   0 |      --      | 1.125429e+01 |    Inf | unknown
r 0.1s|     1 |     0 |  1228 |     - |simplero|   0 | 749 |  77 |  77 |   0 |  0 |   0 |   0 |      --      | 1.118295e+01 |    Inf | unknown
r 0.1s|     1 |     0 |  1229 |     - |simplero|   0 | 749 |  77 |  77 |   0 |  0 |   0 |   0 |      --      | 1.118245e+01 |    Inf | unknown
r 0.1s|     1 |     0 |  1309 |     - |simplero|   0 | 760 |  77 |  77 |   0 |  0 |   0 |   0 |      --      | 9.683457e+00 |    Inf | unknown
r 0.1s|     1 |     0 |  1329 |     - |simplero|   0 | 760 |  77 |  77 |   0 |  0 |   0 |   0 |      --      | 9.575401e+00 |    Inf | unknown
r 0.1s|     1 |     0 |  1372 |     - |simplero|   0 | 771 |  77 |  77 |   0 |  0 |   0 |   0 |      --      | 8.939456e+00 |    Inf | unknown
r 0.1s|     1 |     0 |  1375 |     - |simplero|   0 | 771 |  77 |  77 |   0 |  0 |   0 |   0 |      --      | 8.936672e+00 |    Inf | unknown
r 0.1s|     1 |     0 |  1418 |     - |simplero|   0 | 782 |  77 |  77 |   0 |  0 |   0 |   0 |      --      | 8.228836e+00 |    Inf | unknown
r 0.1s|     1 |     0 |  1437 |     - |simplero|   0 | 782 |  77 |  77 |   0 |  0 |   0 |   0 |      --      | 8.036196e+00 |    Inf | unknown
 time | node  | left  |LP iter|LP it/n|mem/heur|mdpt |vars |cons |rows |cuts |sepa|confs|strbr|  dualbound   | primalbound  |  gap   | compl. 
r 0.1s|     1 |     0 |  1438 |     - |simplero|   0 | 782 |  77 |  77 |   0 |  0 |   0 |   0 |      --      | 8.036010e+00 |    Inf | unknown
r 0.1s|     1 |     0 |  1477 |     - |simplero|   0 | 793 |  77 |  77 |   0 |  0 |   0 |   0 |      --      | 7.306125e+00 |    Inf | unknown
r 0.1s|     1 |     0 |  1505 |     - |simplero|   0 | 793 |  77 |  77 |   0 |  0 |   0 |   0 |      --      | 7.040009e+00 |    Inf | unknown
r 0.1s|     1 |     0 |  1511 |     - |simplero|   0 | 793 |  77 |  77 |   0 |  0 |   0 |   0 |      --      | 7.027590e+00 |    Inf | unknown
r 0.1s|     1 |     0 |  1513 |     - |simplero|   0 | 793 |  77 |  77 |   0 |  0 |   0 |   0 |      --      | 7.027511e+00 |    Inf | unknown
r 0.1s|     1 |     0 |  1559 |     - |simplero|   0 | 804 |  77 |  77 |   0 |  0 |   0 |   0 |      --      | 6.428645e+00 |    Inf | unknown
r 0.1s|     1 |     0 |  1564 |     - |simplero|   0 | 804 |  77 |  77 |   0 |  0 |   0 |   0 |      --      | 6.416175e+00 |    Inf | unknown
r 0.1s|     1 |     0 |  1568 |     - |simplero|   0 | 804 |  77 |  77 |   0 |  0 |   0 |   0 |      --      | 6.412528e+00 |    Inf | unknown
r 0.1s|     1 |     0 |  1612 |     - |simplero|   0 | 815 |  77 |  77 |   0 |  0 |   0 |   0 |      --      | 5.717423e+00 |    Inf | unknown
r 0.1s|     1 |     0 |  1619 |     - |simplero|   0 | 815 |  77 |  77 |   0 |  0 |   0 |   0 |      --      | 5.697374e+00 |    Inf | unknown
r 0.1s|     1 |     0 |  1666 |     - |simplero|   0 | 826 |  77 |  77 |   0 |  0 |   0 |   0 |      --      | 4.781123e+00 |    Inf | unknown
r 0.1s|     1 |     0 |  1692 |     - |simplero|   0 | 826 |  77 |  77 |   0 |  0 |   0 |   0 |      --      | 4.664294e+00 |    Inf | unknown
r 0.1s|     1 |     0 |  1694 |     - |simplero|   0 | 826 |  77 |  77 |   0 |  0 |   0 |   0 |      --      | 4.663542e+00 |    Inf | unknown
r 0.1s|     1 |     0 |  1719 |     - |simplero|   0 | 837 |  77 |  77 |   0 |  0 |   0 |   0 |      --      | 4.433407e+00 |    Inf | unknown
r 0.1s|     1 |     0 |  1723 |     - |simplero|   0 | 837 |  77 |  77 |   0 |  0 |   0 |   0 |      --      | 4.421977e+00 |    Inf | unknown
 time | node  | left  |LP iter|LP it/n|mem/heur|mdpt |vars |cons |rows |cuts |sepa|confs|strbr|  dualbound   | primalbound  |  gap   | compl. 
r 0.1s|     1 |     0 |  1758 |     - |simplero|   0 | 848 |  77 |  77 |   0 |  0 |   0 |   0 |      --      | 4.058177e+00 |    Inf | unknown
r 0.1s|     1 |     0 |  1769 |     - |simplero|   0 | 848 |  77 |  77 |   0 |  0 |   0 |   0 |      --      | 4.001349e+00 |    Inf | unknown
r 0.1s|     1 |     0 |  1806 |     - |simplero|   0 | 859 |  77 |  77 |   0 |  0 |   0 |   0 |      --      | 3.822206e+00 |    Inf | unknown
  0.1s|     1 |     0 |  1808 |     - |  4139k |   0 | 859 |  77 |  77 |   0 |  0 |   0 |   0 |      --      | 3.822206e+00 |    Inf | unknown
r 0.1s|     1 |     0 |  1808 |     - |simplero|   0 | 859 |  77 |  77 |   0 |  0 |   0 |   0 |      --      | 3.821824e+00 |    Inf | unknown
r 0.1s|     1 |     0 |  1809 |     - |simplero|   0 | 859 |  77 |  77 |   0 |  0 |   0 |   0 |      --      | 3.821799e+00 |    Inf | unknown
r 0.1s|     1 |     0 |  1850 |     - |simplero|   0 | 870 |  77 |  77 |   0 |  0 |   0 |   0 |      --      | 3.569903e+00 |    Inf | unknown
r 0.1s|     1 |     0 |  1870 |     - |simplero|   0 | 881 |  77 |  77 |   0 |  0 |   0 |   0 |      --      | 3.421534e+00 |    Inf | unknown
r 0.1s|     1 |     0 |  1886 |     - |simplero|   0 | 881 |  77 |  77 |   0 |  0 |   0 |   0 |      --      | 3.357744e+00 |    Inf | unknown
r 0.1s|     1 |     0 |  1895 |     - |simplero|   0 | 881 |  77 |  77 |   0 |  0 |   0 |   0 |      --      | 3.352956e+00 |    Inf | unknown
r 0.1s|     1 |     0 |  1926 |     - |simplero|   0 | 892 |  77 |  77 |   0 |  0 |   0 |   0 |      --      | 3.229628e+00 |    Inf | unknown
r 0.1s|     1 |     0 |  1952 |     - |simplero|   0 | 903 |  77 |  77 |   0 |  0 |   0 |   0 |      --      | 3.108291e+00 |    Inf | unknown
r 0.1s|     1 |     0 |  1980 |     - |simplero|   0 | 912 |  77 |  77 |   0 |  0 |   0 |   0 |      --      | 3.037769e+00 |    Inf | unknown
r 0.1s|     1 |     0 |  1987 |     - |simplero|   0 | 917 |  77 |  77 |   0 |  0 |   0 |   0 |      --      | 3.026410e+00 |    Inf | unknown
r 0.1s|     1 |     0 |  2006 |     - |simplero|   0 | 921 |  77 |  77 |   0 |  0 |   0 |   0 |      --      | 3.000000e+00 |    Inf | unknown
 time | node  | left  |LP iter|LP it/n|mem/heur|mdpt |vars |cons |rows |cuts |sepa|confs|strbr|  dualbound   | primalbound  |  gap   | compl. 
r 0.1s|     1 |     0 |  2014 |     - |simplero|   0 | 925 |  77 |  77 |   0 |  0 |   0 |   0 |      --      | 2.992194e+00 |    Inf | unknown
r 0.1s|     1 |     0 |  2024 |     - |simplero|   0 | 928 |  77 |  77 |   0 |  0 |   0 |   0 |      --      | 2.983811e+00 |    Inf | unknown
r 0.1s|     1 |     0 |  2026 |     - |simplero|   0 | 931 |  77 |  77 |   0 |  0 |   0 |   0 |      --      | 2.982036e+00 |    Inf | unknown
  0.1s|     1 |     0 |  2026 |     - |  4565k |   0 | 931 |  77 |  77 |   0 |  0 |   0 |   0 | 2.982036e+00 | 2.982036e+00 |   0.00%| unknown
  0.1s|     1 |     0 |  2026 |     - |  4565k |   0 | 931 |  77 |  77 |   0 |  0 |   0 |   0 | 2.982036e+00 | 2.982036e+00 |   0.00%| unknown

SCIP Status        : problem is solved [optimal solution found]
Solving Time (sec) : 0.12
Solving Nodes      : 1
Primal Bound       : +2.98203592814371e+00 (46 solutions)
Dual Bound         : +2.98203592814371e+00
Gap                : 0.00 %

written transformed problem to file <results_rootrelaxation/bin012_060_020.srr.lp>
written transformed problem to file <results_rootrelaxation/bin012_060_020.srr.cip>


SCIP version 8.0.3.5 [precision: 8 byte] [memory: block] [mode: optimized] [LP solver: Soplex 6.0.1.3] [GitHash: 438792519e]
Copyright (c) 2002-2023 Zuse Institute Berlin (ZIB)

External libraries: 
  Readline 8.1         GNU library for command line editing (gnu.org/s/readline)
  Soplex 6.0.1.3       Linear Programming Solver developed at Zuse Institute Berlin (soplex.zib.de) [GitHash: 713be0fe]
  CppAD 20180000.0     Algorithmic Differentiation of C++ algorithms developed by B. Bell (github.com/coin-or/CppAD)
  ZLIB 1.2.11          General purpose compression library by J. Gailly and M. Adler (zlib.net)
  bliss 0.77           Computing Graph Automorphism Groups by T. Junttila and P. Kaski (www.tcs.hut.fi/Software/bliss/)

user parameter file <scip.set> not found - using default parameters

srr/relaxation = TRUE

read problem <instances/bin012_060_020.srr>
============

Original problem: 
original problem has 0 variables (0 bin, 0 int, 0 impl, 0 cont) and 77 constraints

presolving:
presolving (1 rounds: 1 fast, 1 medium, 1 exhaustive):
 0 deleted vars, 0 deleted constraints, 0 added constraints, 0 tightened bounds, 0 added holes, 0 changed sides, 0 changed coefficients
 0 implications, 0 cliques
presolved problem has 0 variables (0 bin, 0 int, 0 impl, 0 cont) and 77 constraints
     77 constraints of type <linear>
Presolving Time: 0.00

 time | node  | left  |LP iter|LP it/n|mem/heur|mdpt |vars |cons |rows |cuts |sepa|confs|strbr|  dualbound   | primalbound  |  gap   | compl. 
  0.0s|     1 |     0 |     1 |     - |   710k |   0 |   1 |  77 |  77 |   0 |  0 |   0 |   0 |      --      |      --      |    Inf | unknown
r 0.0s|     1 |     0 |   967 |     - |simplero|   0 | 694 |  77 |  77 |   0 |  0 |   0 |   0 |      --      | 2.009804e+01 |    Inf | unknown
r 0.0s|     1 |     0 |  1011 |     - |simplero|   0 | 705 |  77 |  77 |   0 |  0 |   0 |   0 |      --      | 1.813564e+01 |    Inf | unknown
r 0.0s|     1 |     0 |  1051 |     - |simplero|   0 | 716 |  77 |  77 |   0 |  0 |   0 |   0 |      --      | 1.689485e+01 |    Inf | unknown
r 0.0s|     1 |     0 |  1128 |     - |simplero|   0 | 727 |  77 |  77 |   0 |  0 |   0 |   0 |      --      | 1.459375e+01 |    Inf | unknown
r 0.1s|     1 |     0 |  1181 |     - |simplero|   0 | 738 |  77 |  77 |   0 |  0 |   0 |   0 |      --      | 1.267916e+01 |    Inf | unknown
r 0.1s|     1 |     0 |  1215 |     - |simplero|   0 | 749 |  77 |  77 |   0 |  0 |   0 |   0 |      --      | 1.125429e+01 |    Inf | unknown
r 0.1s|     1 |     0 |  1228 |     - |simplero|   0 | 749 |  77 |  77 |   0 |  0 |   0 |   0 |      --      | 1.118295e+01 |    Inf | unknown
r 0.1s|     1 |     0 |  1229 |     - |simplero|   0 | 749 |  77 |  77 |   0 |  0 |   0 |   0 |      --      | 1.118245e+01 |    Inf | unknown
r 0.1s|     1 |     0 |  1309 |     - |simplero|   0 | 760 |  77 |  77 |   0 |  0 |   0 |   0 |      --      | 9.683457e+00 |    Inf | unknown
r 0.1s|     1 |     0 |  1329 |     - |simplero|   0 | 760 |  77 |  77 |   0 |  0 |   0 |   0 |      --      | 9.575401e+00 |    Inf | unknown
r 0.1s|     1 |     0 |  1372 |     - |simplero|   0 | 771 |  77 |  77 |   0 |  0 |   0 |   0 |      --      | 8.939456e+00 |    Inf | unknown
r 0.1s|     1 |     0 |  1375 |     - |simplero|   0 | 771 |  77 |  77 |   0 |  0 |   0 |   0 |      --      | 8.936672e+00 |    Inf | unknown
r 0.1s|     1 |     0 |  1418 |     - |simplero|   0 | 782 |  77 |  77 |   0 |  0 |   0 |   0 |      --      | 8.228836e+00 |    Inf | unknown
r 0.1s|     1 |     0 |  1437 |     - |simplero|   0 | 782 |  77 |  77 |   0 |  0 |   0 |   0 |      --      | 8.036196e+00 |    Inf | unknown
 time | node  | left  |LP iter|LP it/n|mem/heur|mdpt |vars |cons |rows |cuts |sepa|confs|strbr|  dualbound   | primalbound  |  gap   | compl. 
r 0.1s|     1 |     0 |  1438 |     - |simplero|   0 | 782 |  77 |  77 |   0 |  0 |   0 |   0 |      --      | 8.036010e+00 |    Inf | unknown
r 0.1s|     1 |     0 |  1477 |     - |simplero|   0 | 793 |  77 |  77 |   0 |  0 |   0 |   0 |      --      | 7.306125e+00 |    Inf | unknown
r 0.1s|     1 |     0 |  1505 |     - |simplero|   0 | 793 |  77 |  77 |   0 |  0 |   0 |   0 |      --      | 7.040009e+00 |    Inf | unknown
r 0.1s|     1 |     0 |  1511 |     - |simplero|   0 | 793 |  77 |  77 |   0 |  0 |   0 |   0 |      --      | 7.027590e+00 |    Inf | unknown
r 0.1s|     1 |     0 |  1513 |     - |simplero|   0 | 793 |  77 |  77 |   0 |  0 |   0 |   0 |      --      | 7.027511e+00 |    Inf | unknown
r 0.1s|     1 |     0 |  1559 |     - |simplero|   0 | 804 |  77 |  77 |   0 |  0 |   0 |   0 |      --      | 6.428645e+00 |    Inf | unknown
r 0.1s|     1 |     0 |  1564 |     - |simplero|   0 | 804 |  77 |  77 |   0 |  0 |   0 |   0 |      --      | 6.416175e+00 |    Inf | unknown
r 0.1s|     1 |     0 |  1568 |     - |simplero|   0 | 804 |  77 |  77 |   0 |  0 |   0 |   0 |      --      | 6.412528e+00 |    Inf | unknown
r 0.1s|     1 |     0 |  1612 |     - |simplero|   0 | 815 |  77 |  77 |   0 |  0 |   0 |   0 |      --      | 5.717423e+00 |    Inf | unknown
r 0.1s|     1 |     0 |  1619 |     - |simplero|   0 | 815 |  77 |  77 |   0 |  0 |   0 |   0 |      --      | 5.697374e+00 |    Inf | unknown
r 0.1s|     1 |     0 |  1666 |     - |simplero|   0 | 826 |  77 |  77 |   0 |  0 |   0 |   0 |      --      | 4.781123e+00 |    Inf | unknown
r 0.1s|     1 |     0 |  1692 |     - |simplero|   0 | 826 |  77 |  77 |   0 |  0 |   0 |   0 |      --      | 4.664294e+00 |    Inf | unknown
r 0.1s|     1 |     0 |  1694 |     - |simplero|   0 | 826 |  77 |  77 |   0 |  0 |   0 |   0 |      --      | 4.663542e+00 |    Inf | unknown
r 0.1s|     1 |     0 |  1719 |     - |simplero|   0 | 837 |  77 |  77 |   0 |  0 |   0 |   0 |      --      | 4.433407e+00 |    Inf | unknown
r 0.1s|     1 |     0 |  1723 |     - |simplero|   0 | 837 |  77 |  77 |   0 |  0 |   0 |   0 |      --      | 4.421977e+00 |    Inf | unknown
 time | node  | left  |LP iter|LP it/n|mem/heur|mdpt |vars |cons |rows |cuts |sepa|confs|strbr|  dualbound   | primalbound  |  gap   | compl. 
r 0.1s|     1 |     0 |  1758 |     - |simplero|   0 | 848 |  77 |  77 |   0 |  0 |   0 |   0 |      --      | 4.058177e+00 |    Inf | unknown
r 0.1s|     1 |     0 |  1769 |     - |simplero|   0 | 848 |  77 |  77 |   0 |  0 |   0 |   0 |      --      | 4.001349e+00 |    Inf | unknown
r 0.1s|     1 |     0 |  1806 |     - |simplero|   0 | 859 |  77 |  77 |   0 |  0 |   0 |   0 |      --      | 3.822206e+00 |    Inf | unknown
  0.1s|     1 |     0 |  1808 |     - |  4139k |   0 | 859 |  77 |  77 |   0 |  0 |   0 |   0 |      --      | 3.822206e+00 |    Inf | unknown
r 0.1s|     1 |     0 |  1808 |     - |simplero|   0 | 859 |  77 |  77 |   0 |  0 |   0 |   0 |      --      | 3.821824e+00 |    Inf | unknown
r 0.1s|     1 |     0 |  1809 |     - |simplero|   0 | 859 |  77 |  77 |   0 |  0 |   0 |   0 |      --      | 3.821799e+00 |    Inf | unknown
r 0.1s|     1 |     0 |  1850 |     - |simplero|   0 | 870 |  77 |  77 |   0 |  0 |   0 |   0 |      --      | 3.569903e+00 |    Inf | unknown
r 0.1s|     1 |     0 |  1870 |     - |simplero|   0 | 881 |  77 |  77 |   0 |  0 |   0 |   0 |      --      | 3.421534e+00 |    Inf | unknown
r 0.1s|     1 |     0 |  1886 |     - |simplero|   0 | 881 |  77 |  77 |   0 |  0 |   0 |   0 |      --      | 3.357744e+00 |    Inf | unknown
r 0.1s|     1 |     0 |  1895 |     - |simplero|   0 | 881 |  77 |  77 |   0 |  0 |   0 |   0 |      --      | 3.352956e+00 |    Inf | unknown
r 0.1s|     1 |     0 |  1926 |     - |simplero|   0 | 892 |  77 |  77 |   0 |  0 |   0 |   0 |      --      | 3.229628e+00 |    Inf | unknown
r 0.1s|     1 |     0 |  1952 |     - |simplero|   0 | 903 |  77 |  77 |   0 |  0 |   0 |   0 |      --      | 3.108291e+00 |    Inf | unknown
r 0.1s|     1 |     0 |  1980 |     - |simplero|   0 | 912 |  77 |  77 |   0 |  0 |   0 |   0 |      --      | 3.037769e+00 |    Inf | unknown
r 0.1s|     1 |     0 |  1987 |     - |simplero|   0 | 917 |  77 |  77 |   0 |  0 |   0 |   0 |      --      | 3.026410e+00 |    Inf | unknown
r 0.1s|     1 |     0 |  2006 |     - |simplero|   0 | 921 |  77 |  77 |   0 |  0 |   0 |   0 |      --      | 3.000000e+00 |    Inf | unknown
 time | node  | left  |LP iter|LP it/n|mem/heur|mdpt |vars |cons |rows |cuts |sepa|confs|strbr|  dualbound   | primalbound  |  gap   | compl. 
r 0.1s|     1 |     0 |  2014 |     - |simplero|   0 | 925 |  77 |  77 |   0 |  0 |   0 |   0 |      --      | 2.992194e+00 |    Inf | unknown
r 0.1s|     1 |     0 |  2024 |     - |simplero|   0 | 928 |  77 |  77 |   0 |  0 |   0 |   0 |      --      | 2.983811e+00 |    Inf | unknown
r 0.1s|     1 |     0 |  2026 |     - |simplero|   0 | 931 |  77 |  77 |   0 |  0 |   0 |   0 |      --      | 2.982036e+00 |    Inf | unknown
  0.1s|     1 |     0 |  2026 |     - |  4565k |   0 | 931 |  77 |  77 |   0 |  0 |   0 |   0 | 2.982036e+00 | 2.982036e+00 |   0.00%| unknown
  0.1s|     1 |     0 |  2026 |     - |  4565k |   0 | 931 |  77 |  77 |   0 |  0 |   0 |   0 | 2.982036e+00 | 2.982036e+00 |   0.00%| unknown

SCIP Status        : problem is solved [optimal solution found]
Solving Time (sec) : 0.09
Solving Nodes      : 1
Primal Bound       : +2.98203592814371e+00 (46 solutions)
Dual Bound         : +2.98203592814371e+00
Gap                : 0.00 %

written transformed problem to file <results_rootrelaxation/bin012_060_020.srr.lp>
written transformed problem to file <results_rootrelaxation/bin012_060_020.srr.cip>

written solution information to file <results_rootrelaxation/bin012_060_020.srr.sol>



